n_res = 4;
rcap = [13, 11, 22, 63];
rtype = [1, 1, 2, 2];
n_tasks = 16;
modes = [ {1}, {2}, {3}, {4}, {5}, {6}, {7}, {8}, {9}, {10}, {11}, {12}, {13}, {14}, {15}, {16} ];
succ = [ {4, 6, 14}, {7, 10, 12}, {5, 10, 11}, {7, 8}, {12, 13, 16}, {7, 9}, {11, 16}, {9, 11}, {12, 16}, {13, 15}, {15}, {15}, {14}, {}, {}, {} ];
n_opt = 16;
dur = [1, 4, 10, 5, 5, 4, 10, 6, 9, 2, 6, 4, 6, 1, 9, 8];
rreq = [|  5,  0,  7,  1,  0,  5,  0,  6,  3,  0,  4,  4,  0,  0,  4,  0
        |  0,  6,  0,  0,  4,  0,  4,  0,  0,  3,  0,  0,  5,  6,  0,  4
        |  0,  0,  2,  6,  1,  0,  0,  0,  0,  7,  5,  0,  0,  0,  1,  0
        |  9,  7,  0,  0,  0,  7,  4,  6,  5,  0,  0,  6,  7,  8,  0,  4 |];
